NAME : A-n06-k2
COMMENT : (Augerat et al, Min no of trucks: 5, Optimal value: 784)
TYPE : CVRP
DIMENSION : 6
EDGE_WEIGHT_TYPE : EUC_2D 
CAPACITY : 100
NODE_COORD_SECTION 
 1 82 76
 2 96 44
 3 13 7
 4 84 25
 5 85 60
 6 98 5
DEMAND_SECTION 
1 0 
2 19 
3 21 
4 6 
5 19 
6 7 
DEPOT_SECTION 
 1  
 -1  
EOF 
